Traveling Salesman Problem/TSP_generados/Aleatorio1621103453_14.tsp
NAME: Aleatorio1621103453_14.tsp
COMMENT: Randomly generated scenario
TYPE: TSP
DIMENSION: 14
EDGE_WEIGHT_TYPE: ATT
NODE_COORD_SECTION
1 19.84 42.61
2 21.28 28.51
3 8.9 27.21
4 3.28 5.6
5 20.61 32.94
6 5.07 16.1
7 37.45 44.26
8 22.73 7.94
9 38.49 39.37
10 9.07 42.43
11 46.6 7.55
12 47.44 22.0
13 2.75 17.49
14 35.69 15.47
