Traveling Salesman Problem/TSP_generados/Aleatorio1621103453_14.opt.tour
NAME: Aleatorio1621103453_14.opt.tour
COMMENT: Optimal solution for Aleatorio1621103453_14 (172.26085333439278)
TYPE: TOUR
DIMENSION: 14
TOUR_SECTION
1 10 5 2 3 13 6 4 8 14 11 12 9 7
-1
EOF
